c 
c G(n,p) graph
c graph gen seed     : 81913
c number of vertices : 60
c max number of edges: 1770
c edge probability   : 0.400000
c data structure     : sparse
c
c           Graph Stats
c number of vertices  : 60
c nonisolated vertices: 60
c number of edges     : 707
c edge density        : 0.399435
c max degree          : 35
c avg degree          : 23.57
c min degree          : 12
p col 60 707
e 1 56
e 1 49
e 1 47
e 1 46
e 1 41
e 1 35
e 1 32
e 1 26
e 1 19
e 1 16
e 1 13
e 1 12
e 1 8
e 1 7
e 1 6
e 1 4
e 2 57
e 2 56
e 2 54
e 2 53
e 2 52
e 2 51
e 2 50
e 2 47
e 2 45
e 2 44
e 2 43
e 2 41
e 2 38
e 2 37
e 2 36
e 2 35
e 2 34
e 2 33
e 2 29
e 2 26
e 2 23
e 2 22
e 2 14
e 2 12
e 2 11
e 2 9
e 2 5
e 2 3
e 3 60
e 3 56
e 3 55
e 3 53
e 3 52
e 3 50
e 3 49
e 3 48
e 3 47
e 3 45
e 3 43
e 3 41
e 3 40
e 3 37
e 3 35
e 3 34
e 3 29
e 3 26
e 3 25
e 3 24
e 3 20
e 3 18
e 3 17
e 3 11
e 3 9
e 3 8
e 3 7
e 4 60
e 4 59
e 4 55
e 4 52
e 4 50
e 4 44
e 4 43
e 4 41
e 4 39
e 4 35
e 4 31
e 4 29
e 4 28
e 4 25
e 4 23
e 4 22
e 4 21
e 4 20
e 4 19
e 4 18
e 4 14
e 4 12
e 4 9
e 4 5
e 5 60
e 5 59
e 5 56
e 5 55
e 5 54
e 5 53
e 5 49
e 5 48
e 5 47
e 5 45
e 5 42
e 5 41
e 5 38
e 5 34
e 5 30
e 5 28
e 5 25
e 5 23
e 5 20
e 5 19
e 5 18
e 5 17
e 5 13
e 5 12
e 5 7
e 6 60
e 6 58
e 6 57
e 6 54
e 6 51
e 6 47
e 6 46
e 6 45
e 6 43
e 6 42
e 6 41
e 6 40
e 6 37
e 6 33
e 6 32
e 6 30
e 6 28
e 6 27
e 6 26
e 6 25
e 6 24
e 6 21
e 6 16
e 6 15
e 6 14
e 6 12
e 6 11
e 6 8
e 7 60
e 7 59
e 7 58
e 7 56
e 7 55
e 7 50
e 7 44
e 7 42
e 7 38
e 7 37
e 7 34
e 7 33
e 7 29
e 7 28
e 7 27
e 7 23
e 7 22
e 7 20
e 7 19
e 7 15
e 7 13
e 7 11
e 7 10
e 8 60
e 8 51
e 8 49
e 8 43
e 8 42
e 8 40
e 8 38
e 8 37
e 8 35
e 8 34
e 8 31
e 8 29
e 8 28
e 8 22
e 8 21
e 8 19
e 8 18
e 8 16
e 8 13
e 8 11
e 8 10
e 9 60
e 9 59
e 9 56
e 9 54
e 9 53
e 9 50
e 9 45
e 9 43
e 9 42
e 9 41
e 9 40
e 9 36
e 9 33
e 9 31
e 9 22
e 9 18
e 9 10
e 10 56
e 10 49
e 10 47
e 10 45
e 10 44
e 10 43
e 10 42
e 10 41
e 10 40
e 10 38
e 10 35
e 10 32
e 10 31
e 10 26
e 10 24
e 10 22
e 10 19
e 11 60
e 11 59
e 11 58
e 11 57
e 11 55
e 11 49
e 11 45
e 11 44
e 11 40
e 11 37
e 11 26
e 11 25
e 11 22
e 11 19
e 11 18
e 11 15
e 11 14
e 11 12
e 12 59
e 12 56
e 12 51
e 12 50
e 12 48
e 12 46
e 12 45
e 12 43
e 12 42
e 12 40
e 12 38
e 12 34
e 12 29
e 12 26
e 12 23
e 12 22
e 12 21
e 12 19
e 12 17
e 12 14
e 13 60
e 13 59
e 13 57
e 13 56
e 13 54
e 13 53
e 13 51
e 13 48
e 13 47
e 13 46
e 13 44
e 13 41
e 13 40
e 13 38
e 13 37
e 13 36
e 13 28
e 13 26
e 13 23
e 13 21
e 13 20
e 13 19
e 14 56
e 14 54
e 14 50
e 14 48
e 14 45
e 14 43
e 14 39
e 14 38
e 14 37
e 14 36
e 14 35
e 14 24
e 14 21
e 14 20
e 14 16
e 14 15
e 15 60
e 15 58
e 15 57
e 15 56
e 15 55
e 15 54
e 15 52
e 15 48
e 15 47
e 15 46
e 15 45
e 15 44
e 15 36
e 15 33
e 15 22
e 15 17
e 15 16
e 16 57
e 16 56
e 16 53
e 16 51
e 16 50
e 16 44
e 16 43
e 16 41
e 16 40
e 16 37
e 16 35
e 16 34
e 16 33
e 16 32
e 16 26
e 16 23
e 16 22
e 16 21
e 16 20
e 16 18
e 16 17
e 17 59
e 17 57
e 17 51
e 17 50
e 17 49
e 17 44
e 17 42
e 17 40
e 17 39
e 17 38
e 17 36
e 17 35
e 17 32
e 17 29
e 17 28
e 17 25
e 17 23
e 17 22
e 17 20
e 18 59
e 18 58
e 18 56
e 18 55
e 18 54
e 18 51
e 18 50
e 18 49
e 18 47
e 18 42
e 18 35
e 18 34
e 18 33
e 18 32
e 18 31
e 18 29
e 18 27
e 18 25
e 18 24
e 18 20
e 19 56
e 19 50
e 19 44
e 19 43
e 19 37
e 19 35
e 19 33
e 19 31
e 19 26
e 19 25
e 19 24
e 19 22
e 19 20
e 20 60
e 20 58
e 20 56
e 20 49
e 20 45
e 20 40
e 20 39
e 20 38
e 20 37
e 20 33
e 20 32
e 20 31
e 20 25
e 20 23
e 21 55
e 21 52
e 21 51
e 21 43
e 21 42
e 21 40
e 21 36
e 21 34
e 21 33
e 21 32
e 21 26
e 21 25
e 21 23
e 21 22
e 22 57
e 22 52
e 22 49
e 22 47
e 22 46
e 22 41
e 22 39
e 22 38
e 22 31
e 22 23
e 23 59
e 23 58
e 23 56
e 23 54
e 23 53
e 23 52
e 23 50
e 23 48
e 23 47
e 23 46
e 23 44
e 23 43
e 23 42
e 23 41
e 23 40
e 23 39
e 23 36
e 23 35
e 23 34
e 23 32
e 23 31
e 23 30
e 23 28
e 23 25
e 24 56
e 24 54
e 24 53
e 24 52
e 24 48
e 24 47
e 24 38
e 24 37
e 24 35
e 24 33
e 24 29
e 24 25
e 25 58
e 25 56
e 25 55
e 25 53
e 25 49
e 25 43
e 25 41
e 25 40
e 25 38
e 25 37
e 25 31
e 25 29
e 25 28
e 25 27
e 26 60
e 26 59
e 26 58
e 26 52
e 26 50
e 26 48
e 26 47
e 26 44
e 26 42
e 26 40
e 26 37
e 26 36
e 26 33
e 26 29
e 27 56
e 27 55
e 27 52
e 27 45
e 27 41
e 27 40
e 27 39
e 27 35
e 27 30
e 27 29
e 27 28
e 28 59
e 28 58
e 28 55
e 28 50
e 28 46
e 28 44
e 28 43
e 28 39
e 28 37
e 28 32
e 28 31
e 29 59
e 29 57
e 29 56
e 29 51
e 29 50
e 29 48
e 29 47
e 29 45
e 29 43
e 29 42
e 29 39
e 29 38
e 29 37
e 29 36
e 29 33
e 29 30
e 30 59
e 30 53
e 30 52
e 30 51
e 30 50
e 30 42
e 30 34
e 31 57
e 31 54
e 31 49
e 31 48
e 31 46
e 31 43
e 31 37
e 31 33
e 32 60
e 32 58
e 32 52
e 32 51
e 32 46
e 32 42
e 32 40
e 32 36
e 32 33
e 33 60
e 33 55
e 33 54
e 33 53
e 33 44
e 33 41
e 33 39
e 33 38
e 33 36
e 33 34
e 34 60
e 34 59
e 34 58
e 34 57
e 34 49
e 34 48
e 34 45
e 34 43
e 34 41
e 34 40
e 34 37
e 34 36
e 35 60
e 35 58
e 35 54
e 35 50
e 35 48
e 35 46
e 35 42
e 35 38
e 35 36
e 36 59
e 36 52
e 36 51
e 36 46
e 37 60
e 37 55
e 37 54
e 37 51
e 37 49
e 37 45
e 37 44
e 37 43
e 37 41
e 37 39
e 37 38
e 38 59
e 38 57
e 38 53
e 38 52
e 38 50
e 38 48
e 38 47
e 38 41
e 38 39
e 39 60
e 39 52
e 39 51
e 39 49
e 39 45
e 39 41
e 40 60
e 40 59
e 40 54
e 40 53
e 40 52
e 40 49
e 40 46
e 40 45
e 40 43
e 40 42
e 40 41
e 41 60
e 41 59
e 41 58
e 41 54
e 41 52
e 41 48
e 41 47
e 41 42
e 42 56
e 42 54
e 42 51
e 42 48
e 42 46
e 42 44
e 43 59
e 43 57
e 43 53
e 43 52
e 43 48
e 43 47
e 43 46
e 44 59
e 44 58
e 44 57
e 44 54
e 44 52
e 44 50
e 44 45
e 45 59
e 45 57
e 45 56
e 45 55
e 45 53
e 45 52
e 45 50
e 45 49
e 45 47
e 45 46
e 46 58
e 46 55
e 46 54
e 46 50
e 46 49
e 46 48
e 47 58
e 47 57
e 47 56
e 47 53
e 48 60
e 48 59
e 48 56
e 48 54
e 48 53
e 48 52
e 48 50
e 49 56
e 49 51
e 49 50
e 50 57
e 50 56
e 50 55
e 50 54
e 50 53
e 50 52
e 51 60
e 51 57
e 52 56
e 53 58
e 53 57
e 53 54
e 54 60
e 54 59
e 54 57
e 54 56
e 54 55
e 56 60
e 56 58
e 58 60
e 58 59
